&control
  calculation = 'scf'
  restart_mode = 'from_scratch',
  prefix = 'SiVH3',
  pseudo_dir = './',
  outdir = './tmp',
  tprnfor = .true.
  wf_collect = .true.
/
&system    
  ibrav=  0, celldm(1) = 20.659851009, nat = 66, ntyp= 2,
  nbnd = 500,
  ecutwfc = 75.0,
  occupations='smearing', smearing='gauss', degauss=0.001
  la2F = .true.
  nosym = .true.
/
&electrons
  mixing_mode = 'plain'
  mixing_beta = 0.7 
  conv_thr =  1.0d-10
/
&ions
  ion_dynamics = 'bfgs'
/
&cell
  cell_dynamics = 'bfgs'
/
CELL_PARAMETERS (alat)
   1.001791811  -0.001751480  -0.001751480
  -0.001751480   1.001791811  -0.001751480
  -0.001751480  -0.001751480   1.001791811
ATOMIC_SPECIES
 Si  28.08550  Si.pbe-n-kjpaw_psl.0.1.UPF
 H    1.00794  H.pbe-kjpaw_psl.0.1.UPF
ATOMIC_POSITIONS (alat)
 Si  0.11184959498526834       0.13841819527735089       0.11186566456232458     
 Si  0.37304757379184972       0.37415488633438271       0.10752727594968639     
 Si  0.38069233553064108        9.6335665656265418E-002  0.38074844596964497     
 Si  0.12253785705216835       0.37517232049583815       0.37505376620288322     
 Si   1.6928345184239618E-002   1.3563968848581600E-002   1.6932267578897660E-002
 Si  0.23723692370514332       0.23791767318741713        1.2886015310368157E-002
 Si  0.23256692144094596        1.5677411836176741E-002  0.23257034041792168     
 Si   1.4223391754027280E-002  0.23676061246001717       0.23600171476983536     
 Si  0.12933357576981061       0.11911796053207216       0.64691067069018804     
 Si  0.38256026769570478       0.36943640238894526       0.65566851073666443     
 Si  0.37127705533698985       0.14141714742456107       0.87895126152391623     
 Si  0.13286880767120410       0.35912571354717532       0.89234006710900970     
 Si  -4.4931890029718238E-004  -1.1752831184232918E-004  0.50161616504488382     
 Si  0.23224958296578493       0.23688353516022925       0.51254487672264437     
 Si  0.24193875989028515        7.5030585821640947E-003  0.74142232650448558     
 Si   9.8132451553115656E-003  0.23422265095547079       0.72895585863323986     
 Si  0.12902065191119497       0.60591885907272869       0.12916511028582572     
 Si  0.37411779071641177       0.87738679012627196       0.12293796875565628     
 Si  0.37158430567046630       0.64448339379014219       0.37161803795768938     
 Si  0.14680387978509910       0.87271723315556338       0.37884343828339379     
 Si   4.6748840696444749E-003  0.52397332094234772        4.6377308614863081E-003
 Si  0.23705924172041737       0.74812716275398250        9.1704653678948821E-004
 Si  0.24428996686276983       0.50415101446407407       0.24421657322149765     
 Si   3.0075455311159871E-003  0.74615978861498622       0.22856606702280444     
 Si  0.12284604170216847       0.62481683189500381       0.62473360392213462     
 Si  0.38389254310973064       0.86410425665395063       0.60060699188370426     
 Si  0.38246079354411133       0.61190844918887954       0.87404013515274892     
 Si   9.4678009322483714E-002  0.87806070325860153       0.87611401556279955     
 Si   5.9852547051956282E-003  0.50763784381285937       0.50727999346964692     
 Si  0.22941604286260348       0.73703582199079332       0.51387265433759821     
 Si  0.23865784704933918       0.50537046771741467       0.74759382342035818     
 Si   7.4119834526140127E-003  0.73858324399524566       0.74066442261717769     
 Si  0.63126533617142333       0.12293028005858699       0.12547817993179430     
 Si  0.89137451800862488       0.36019171721712434       0.13208499484938827     
 Si  0.87887181263053749       0.14016296189380736       0.37146254669216544     
 Si  0.65794665447537315       0.36965056637150517       0.38431233677104781     
 Si  0.51378479422800383        1.7556368026241876E-002   9.1062355666302261E-003
 Si  0.73690138435123165       0.23957103331238586        5.5665335053714637E-003
 Si  0.74628271095961296        2.6557855232083529E-003  0.24555560663980183     
 Si  0.50710396703870075       0.24230860708419491       0.23966879110461181     
 Si  0.60896443554452107       0.12939782119167104       0.60906193254541008     
 Si  0.86877651961895996       0.37939914703950756       0.59770561578361703     
 Si  0.88830511484808949       0.11130388768248861       0.88836381853362867     
 Si  0.59904156240550732       0.37909484495231671       0.86908085902871934     
 Si  0.50058823263474583       -1.6203128828660069E-003  0.50058821281001120     
 Si  0.74274086880560197       0.23313556078982395       0.51094950222243596     
 Si  0.74677251272981637       -8.1704370183400448E-004  0.74677166428491770     
 Si  0.50617385749526134       0.23790872246887501       0.74707725527740820     
 Si  0.62279856339042949       0.62682797632068299       0.12207604805460558     
 Si  0.87496789965581645       0.87536985502265374       0.11621617148628571     
 Si  0.87500910154183076       0.62260450976530213       0.37426368741203270     
 Si  0.60985999465023322       0.86834235678091320       0.37957210800329122     
 Si  0.50236706358186145       0.50248842507510283        5.1281315941717562E-004
 Si  0.74153500773361603       0.73966258772069482        6.3253129636613829E-003
 Si  0.73909039284982270       0.51435715903774748       0.22962935229825540     
 Si  0.50327628953663550       0.74887077311175598       0.24056042020771159     
 Si  0.62523921469462385       0.62326636296029037       0.62836640031394753     
 Si  0.86913266827170121       0.89293235156454009       0.61821980591866221     
 Si  0.88326908883804134       0.61552234392406591       0.87294127703695112     
 Si  0.62891171892486952       0.88207160879752033       0.87988649106695871     
 Si  0.72588423967590643       0.73627180895319799       0.51303300404926222     
 Si  0.73020499259296234       0.51093094780947901       0.73015211459374041     
 Si  0.49873488897277624       0.74727515916570619       0.74674786110495606     
 H   0.45913192002417536       0.44944261196019475       0.57713887522476737     
 H   0.46010897066371009       0.56315302701324921       0.45601644657722079     
 H   0.57173329162422815       0.45015300366108385       0.45498192785298619
K_POINTS {automatic}
  3 3 3 0 0 0
