&inputpp
  prefix = 'SiPerf',
  outdir = './SiliconFiles/tmp',
  !
  exportDir = './ExportPC'
  writeWFC = .true.
/
