&inputpp
  prefix = 'SiPerf',
  outdir = '../perfectCrystal/tmp/',
  !
  exportDir = './ExportPC'
  writeWFC = .true.
/
